Minimize
	value: tt

Subject to
tt + 2000 s_1_1 > 0
tt - t_1_1 - 2000.000000 s_1_1 > -1999.098400
tt + 2000 s_2_1 > 0
tt - t_2_1 - 2000.000000 s_2_1 > -1998.828000
tt + 2000 s_1_2 > 0
tt - t_1_2 - 2000.000000 s_1_2 > -1997.602500
tt + 2000 s_2_2 > 0
tt - t_2_2 - 2000.000000 s_2_2 > -1997.572600
tt + 2000 s_1_3 > 0
tt - t_1_3 - 2000.000000 s_1_3 > -1998.509500
tt + 2000 s_2_3 > 0
tt - t_2_3 - 2000.000000 s_2_3 > -1997.677200
tt + 2000 s_1_4 > 0
tt - t_1_4 - 2000.000000 s_1_4 > -1995.192700
tt + 2000 s_2_4 > 0
tt - t_2_4 - 2000.000000 s_2_4 > -1996.174700
tt + 2000 s_1_5 > 0
tt - t_1_5 - 2019.593080 s_1_5 + 19.593080 s_1_4 > -1999.774000
tt + 2000 s_2_5 > 0
tt - t_2_5 - 2047.141240 s_2_5 + 47.141240 s_2_4 > -1998.827000
s_1_1 + s_2_1  = 1
s_1_2 + s_2_2  = 1
s_1_3 + s_2_3  = 1
s_1_4 + s_2_4  = 1
s_1_5 + s_2_5  = 1
t_1_1 - t_1_2 + 2000.000000 u_1_1_2 > 2.397500
t_1_2 - t_1_1 - 2000.000000 u_1_1_2 > -1999.098400
t_2_1 - t_2_2 + 2000.000000 u_2_1_2 > 2.427400
t_2_2 - t_2_1 - 2000.000000 u_2_1_2 > -1998.828000
t_1_1 - t_1_3 + 2000.000000 u_1_1_3 > 1.490500
t_1_3 - t_1_1 - 2000.000000 u_1_1_3 > -1999.098400
t_2_1 - t_2_3 + 2000.000000 u_2_1_3 > 2.322800
t_2_3 - t_2_1 - 2000.000000 u_2_1_3 > -1998.828000
t_1_1 - t_1_4 + 2000.000000 u_1_1_4 > 4.807300
t_1_4 - t_1_1 - 2000.000000 u_1_1_4 > -1999.098400
t_2_1 - t_2_4 + 2000.000000 u_2_1_4 > 3.825300
t_2_4 - t_2_1 - 2000.000000 u_2_1_4 > -1998.828000
t_1_5 - t_1_1 - 2000.000000 s_1_1 > -1994.907310
t_1_5 - t_2_1 - 2000.000000 s_2_1 > -1988.515620
t_2_5 - t_1_1 - 2000.000000 s_1_1 > -1994.907310
t_2_5 - t_2_1 - 2000.000000 s_2_1 > -1988.515620
t_1_2 - t_1_1 + 2000.000000 u_1_2_1 > 0.901600
t_1_1 - t_1_2 - 2000.000000 u_1_2_1 > -1997.602500
t_2_2 - t_2_1 + 2000.000000 u_2_2_1 > 1.172000
t_2_1 - t_2_2 - 2000.000000 u_2_2_1 > -1997.572600
t_1_2 - t_1_3 + 2000.000000 u_1_2_3 > 1.490500
t_1_3 - t_1_2 - 2000.000000 u_1_2_3 > -1997.602500
t_2_2 - t_2_3 + 2000.000000 u_2_2_3 > 2.322800
t_2_3 - t_2_2 - 2000.000000 u_2_2_3 > -1997.572600
t_1_2 - t_1_4 + 2000.000000 u_1_2_4 > 4.807300
t_1_4 - t_1_2 - 2000.000000 u_1_2_4 > -1997.602500
t_2_2 - t_2_4 + 2000.000000 u_2_2_4 > 3.825300
t_2_4 - t_2_2 - 2000.000000 u_2_2_4 > -1997.572600
t_1_5 - t_1_2 - 2000.000000 s_1_2 > -1993.411410
t_1_5 - t_2_2 - 2000.000000 s_2_2 > -1987.260220
t_2_5 - t_1_2 - 2000.000000 s_1_2 > -1993.411410
t_2_5 - t_2_2 - 2000.000000 s_2_2 > -1987.260220
t_1_3 - t_1_1 + 2000.000000 u_1_3_1 > 0.901600
t_1_1 - t_1_3 - 2000.000000 u_1_3_1 > -1998.509500
t_2_3 - t_2_1 + 2000.000000 u_2_3_1 > 1.172000
t_2_1 - t_2_3 - 2000.000000 u_2_3_1 > -1997.677200
t_1_3 - t_1_2 + 2000.000000 u_1_3_2 > 2.397500
t_1_2 - t_1_3 - 2000.000000 u_1_3_2 > -1998.509500
t_2_3 - t_2_2 + 2000.000000 u_2_3_2 > 2.427400
t_2_2 - t_2_3 - 2000.000000 u_2_3_2 > -1997.677200
t_1_3 - t_1_4 + 2000.000000 u_1_3_4 > 4.807300
t_1_4 - t_1_3 - 2000.000000 u_1_3_4 > -1998.509500
t_2_3 - t_2_4 + 2000.000000 u_2_3_4 > 3.825300
t_2_4 - t_2_3 - 2000.000000 u_2_3_4 > -1997.677200
t_1_5 - t_1_3 - 2000.000000 s_1_3 > -1994.318410
t_1_5 - t_2_3 - 2000.000000 s_2_3 > -1987.364820
t_2_5 - t_1_3 - 2000.000000 s_1_3 > -1994.318410
t_2_5 - t_2_3 - 2000.000000 s_2_3 > -1987.364820
t_1_4 - t_1_1 + 2000.000000 u_1_4_1 > 0.901600
t_1_1 - t_1_4 - 2000.000000 u_1_4_1 > -1995.192700
t_2_4 - t_2_1 + 2000.000000 u_2_4_1 > 1.172000
t_2_1 - t_2_4 - 2000.000000 u_2_4_1 > -1996.174700
t_1_4 - t_1_2 + 2000.000000 u_1_4_2 > 2.397500
t_1_2 - t_1_4 - 2000.000000 u_1_4_2 > -1995.192700
t_2_4 - t_2_2 + 2000.000000 u_2_4_2 > 2.427400
t_2_2 - t_2_4 - 2000.000000 u_2_4_2 > -1996.174700
t_1_4 - t_1_3 + 2000.000000 u_1_4_3 > 1.490500
t_1_3 - t_1_4 - 2000.000000 u_1_4_3 > -1995.192700
t_2_4 - t_2_3 + 2000.000000 u_2_4_3 > 2.322800
t_2_3 - t_2_4 - 2000.000000 u_2_4_3 > -1996.174700
t_1_5 - t_1_4 - 2000.000000 s_1_4 > -1991.001610
t_1_5 - t_2_4 - 2000.000000 s_2_4 > -1985.862320
t_2_5 - t_1_4 - 2000.000000 s_1_4 > -1991.001610
t_2_5 - t_2_4 - 2000.000000 s_2_4 > -1985.862320
t_1_5 - t_1_1 - 2000.000000 s_1_1 > -1994.907310
t_1_5 - t_2_1 - 2000.000000 s_2_1 > -1988.515620
t_2_5 - t_1_1 - 2000.000000 s_1_1 > -1994.907310
t_2_5 - t_2_1 - 2000.000000 s_2_1 > -1988.515620
t_1_5 - t_1_2 - 2000.000000 s_1_2 > -1993.411410
t_1_5 - t_2_2 - 2000.000000 s_2_2 > -1987.260220
t_2_5 - t_1_2 - 2000.000000 s_1_2 > -1993.411410
t_2_5 - t_2_2 - 2000.000000 s_2_2 > -1987.260220
t_1_5 - t_1_3 - 2000.000000 s_1_3 > -1994.318410
t_1_5 - t_2_3 - 2000.000000 s_2_3 > -1987.364820
t_2_5 - t_1_3 - 2000.000000 s_1_3 > -1994.318410
t_2_5 - t_2_3 - 2000.000000 s_2_3 > -1987.364820
t_1_5 - t_1_4 - 2000.000000 s_1_4 > -1991.001610
t_1_5 - t_2_4 - 2000.000000 s_2_4 > -1985.862320
t_2_5 - t_1_4 - 2000.000000 s_1_4 > -1991.001610
t_2_5 - t_2_4 - 2000.000000 s_2_4 > -1985.862320
Binary
s_1_1
s_2_1
s_1_2
s_2_2
s_1_3
s_2_3
s_1_4
s_2_4
s_1_5
s_2_5
u_1_1_2
u_2_1_2
u_1_1_3
u_2_1_3
u_1_1_4
u_2_1_4
u_1_2_1
u_2_2_1
u_1_2_3
u_2_2_3
u_1_2_4
u_2_2_4
u_1_3_1
u_2_3_1
u_1_3_2
u_2_3_2
u_1_3_4
u_2_3_4
u_1_4_1
u_2_4_1
u_1_4_2
u_2_4_2
u_1_4_3
u_2_4_3

End
